(set-info :smt-lib-version 2.6)
(set-logic QF_S)
(set-info :source |
Generated by: Hung-En Wang, Tzung-Lin Tsai, Chun-Han Lin, Fang Yu, and Jie-Hong R. Jiang
Generated on: 2019-02-28
Generator: Stranger
Application: Security analysis of string manipulating web applications
Target solver: CVC4, Norn, Z3-str2
Publication:
Hung-En Wang, Tzung-Lin Tsai, Chun-Han Lin, Fang Yu, Jie-Hong R. Jiang:
String Analysis via Automata Manipulation with Logic Circuit Representation. CAV (1) 2016: 241-260.
|)
(set-info :license "https://creativecommons.org/licenses/by/4.0/")
(set-info :category "industrial")
(set-info :status unknown)

(declare-fun sigmaStar_0 () String)
(declare-fun sigmaStar_1 () String)
(declare-fun sigmaStar_2 () String)
(declare-fun literal_10 () String)
(declare-fun x_13 () String)
(declare-fun sigmaStar_17 () String)
(declare-fun sigmaStar_24 () String)
(declare-fun literal_25 () String)
(declare-fun x_26 () String)
(declare-fun literal_27 () String)
(declare-fun x_28 () String)
(declare-fun x_18 () String)
(assert (= literal_10 "\u{42}\u{79}\u{74}\u{65}\u{73}"))
(assert (= x_13 (str.++ sigmaStar_1 literal_10)))
(assert (= x_18 (str.replace sigmaStar_2 "\u{2c}" "\u{20}")))
(assert (= literal_25 "\u{3c}\u{73}\u{70}\u{61}\u{6e}\u{20}\u{63}\u{6c}\u{61}\u{73}\u{73}\u{3d}\u{27}\u{73}\u{6d}\u{61}\u{6c}\u{6c}\u{32}\u{27}\u{3e}"))
(assert (= x_26 (str.++ literal_25 sigmaStar_24)))
(assert (= literal_27 "\u{3c}\u{2f}\u{73}\u{70}\u{61}\u{6e}\u{3e}"))
(assert (= x_28 (str.++ x_26 literal_27)))
(assert (str.in_re x_28 (re.++ (re.* re.allchar) (re.++ (str.to_re "\u{5c}\u{3c}\u{53}\u{43}\u{52}\u{49}\u{50}\u{54}") (re.* re.allchar)))))
(check-sat)
(exit)
